certificates/rado_a3_c68_N22.cnf
c Rad2 upper bound instance: x1 + 3*x2 - x3 = 68, interval [1,22]
p cnf 22 154
1 3 22 0
-1 -3 -22 0
2 4 22 0
-2 -4 -22 0
3 5 22 0
-3 -5 -22 0
1 6 21 0
-1 -6 -21 0
4 6 22 0
-4 -6 -22 0
2 7 21 0
-2 -7 -21 0
5 7 22 0
-5 -7 -22 0
3 8 21 0
-3 -8 -21 0
6 8 22 0
-6 -8 -22 0
1 9 20 0
-1 -9 -20 0
4 9 21 0
-4 -9 -21 0
7 9 22 0
-7 -9 -22 0
2 10 20 0
-2 -10 -20 0
5 10 21 0
-5 -10 -21 0
8 10 22 0
-8 -10 -22 0
3 11 20 0
-3 -11 -20 0
6 11 21 0
-6 -11 -21 0
9 11 22 0
-9 -11 -22 0
1 12 19 0
-1 -12 -19 0
4 12 20 0
-4 -12 -20 0
7 12 21 0
-7 -12 -21 0
10 12 22 0
-10 -12 -22 0
2 13 19 0
-2 -13 -19 0
5 13 20 0
-5 -13 -20 0
8 13 21 0
-8 -13 -21 0
11 13 22 0
-11 -13 -22 0
3 14 19 0
-3 -14 -19 0
6 14 20 0
-6 -14 -20 0
9 14 21 0
-9 -14 -21 0
12 14 22 0
-12 -14 -22 0
1 15 18 0
-1 -15 -18 0
4 15 19 0
-4 -15 -19 0
7 15 20 0
-7 -15 -20 0
10 15 21 0
-10 -15 -21 0
13 15 22 0
-13 -15 -22 0
2 16 18 0
-2 -16 -18 0
5 16 19 0
-5 -16 -19 0
8 16 20 0
-8 -16 -20 0
11 16 21 0
-11 -16 -21 0
14 16 22 0
-14 -16 -22 0
3 17 18 0
-3 -17 -18 0
6 17 19 0
-6 -17 -19 0
9 17 20 0
-9 -17 -20 0
12 17 21 0
-12 -17 -21 0
15 17 22 0
-15 -17 -22 0
1 17 18 0
-1 -17 -18 0
4 18 0
-4 -18 0
7 18 19 0
-7 -18 -19 0
10 18 20 0
-10 -18 -20 0
13 18 21 0
-13 -18 -21 0
16 18 22 0
-16 -18 -22 0
2 17 19 0
-2 -17 -19 0
5 18 19 0
-5 -18 -19 0
8 19 0
-8 -19 0
11 19 20 0
-11 -19 -20 0
14 19 21 0
-14 -19 -21 0
17 19 22 0
-17 -19 -22 0
3 17 20 0
-3 -17 -20 0
6 18 20 0
-6 -18 -20 0
9 19 20 0
-9 -19 -20 0
12 20 0
-12 -20 0
15 20 21 0
-15 -20 -21 0
18 20 22 0
-18 -20 -22 0
1 16 21 0
-1 -16 -21 0
4 17 21 0
-4 -17 -21 0
7 18 21 0
-7 -18 -21 0
10 19 21 0
-10 -19 -21 0
13 20 21 0
-13 -20 -21 0
16 21 0
-16 -21 0
19 21 22 0
-19 -21 -22 0
2 16 22 0
-2 -16 -22 0
5 17 22 0
-5 -17 -22 0
8 18 22 0
-8 -18 -22 0
11 19 22 0
-11 -19 -22 0
14 20 22 0
-14 -20 -22 0
17 21 22 0
-17 -21 -22 0
20 22 0
-20 -22 0
